tsp_instances/TSP50/instance94.tsp
NODE_COORD_SECTION
0 102 128
1 27 52
2 36 151
3 101 157
4 49 17
5 106 148
6 67 45
7 200 111
8 30 125
9 116 114
10 123 193
11 67 138
12 169 24
13 177 76
14 171 186
15 120 178
16 90 178
17 116 67
18 160 192
19 44 12
20 138 111
21 179 82
22 69 73
23 82 119
24 41 119
25 28 200
26 127 12
27 159 21
28 76 65
29 96 173
30 98 185
31 173 94
32 125 170
33 185 34
34 124 65
35 166 161
36 68 169
37 124 110
38 21 130
39 135 5
40 128 62
41 22 95
42 39 200
43 63 64
44 134 154
45 161 42
46 187 79
47 80 53
48 63 182
49 160 24
