tsp_instances/TSP50/instance94.opt.tour
TOUR_SECTION
1
10
38
21
45
33
16
11
19
15
36
8
32
22
47
14
46
34
13
50
28
40
27
41
35
18
48
29
23
44
7
5
20
2
42
25
9
39
3
26
43
49
37
17
31
30
4
6
12
24
-1